File: D:\ML4VRP2024\Instances\CVRP\json\X-n134-k13.json exists.
Route #1: 125 69 1 49 71 61 120 111 93 
Route #2: 95 58 9 2 
Route #3: 19 3 72 103 10 62 37 88 
Route #4: 129 116 105 25 113 13 63 81 15 27 22 4 70 55 126 
Route #5: 52 89 6 97 5 77 121 7 68 30 8 107 84 44 67 20 75 28 98 23 
Route #6: 100 122 11 114 131 101 90 108 66 53 
Route #7: 17 130 82 124 33 86 12 102 
Route #8: 118 91 14 60 16 51 47 
Route #9: 40 34 41 39 73 18 59 96 
Route #10: 76 80 115 133 85 106 46 21 45 94 
Route #11: 83 74 50 38 35 26 32 24 
Route #12: 128 31 92 29 119 57 104 99 
Route #13: 127 112 64 48 117 79 43 36 42 65 
Route #14: 132 109 78 87 56 123 110 54 
